W=6;
H=5;

MAX_TIME=18;
MAX_TRACKS=12;

TARGET=(3,6);

TRAINS=[(1,1,DOWN),(2,1,DOWN)];
DECOYS=[];

INIT_POS=[
(1,1,STRAIGHT_TD),
(2,1,STRAIGHT_TD),
(3,3,STRAIGHT_TD),
(3,6,STRAIGHT_RL),
(4,3,DSWITCH_R_L_T),
(4,4,DSWITCH_R_L_T),
];
TUNNEL_PAIRS=[];

GATES=[];
ACTIVATIONS=[
(3,3,1),
];

DSWITCHES=[
(4,3,1),
(4,4,1),
];
STATIONS=[];
